NAME: cuum820.tsp
TYPE: TSP
COMMENT: User-generated TSP file
DIMENSION: 820
EDGE_WEIGHT_TYPE: EUC_2D
NODE_COORD_SECTION
1 635.0 525.0
2 786.0 639.0
3 691.0 707.0
4 67.0 192.0
5 90.0 408.0
6 168.0 684.0
7 820.0 203.0
8 527.0 236.0
9 769.0 304.0
10 136.0 65.0
11 778.0 94.0
12 336.0 591.0
13 149.0 88.0
14 9.0 706.0
15 307.0 263.0
16 647.0 383.0
17 41.0 618.0
18 148.0 807.0
19 550.0 782.0
20 104.0 426.0
21 224.0 277.0
22 400.0 328.0
23 165.0 675.0
24 263.0 568.0
25 133.0 542.0
26 331.0 496.0
27 751.0 485.0
28 231.0 643.0
29 737.0 777.0
30 625.0 519.0
31 674.0 645.0
32 118.0 171.0
33 724.0 743.0
34 540.0 497.0
35 802.0 255.0
36 32.0 613.0
37 803.0 661.0
38 426.0 456.0
39 272.0 706.0
40 725.0 1.0
41 161.0 176.0
42 438.0 382.0
43 288.0 287.0
44 719.0 244.0
45 105.0 138.0
46 786.0 423.0
47 186.0 11.0
48 66.0 241.0
49 453.0 147.0
50 91.0 516.0
51 570.0 573.0
52 277.0 337.0
53 575.0 188.0
54 34.0 768.0
55 73.0 22.0
56 626.0 18.0
57 317.0 477.0
58 197.0 367.0
59 686.0 590.0
60 561.0 692.0
61 55.0 767.0
62 25.0 464.0
63 615.0 373.0
64 313.0 21.0
65 343.0 396.0
66 384.0 334.0
67 510.0 121.0
68 125.0 244.0
69 329.0 661.0
70 15.0 221.0
71 297.0 562.0
72 647.0 169.0
73 568.0 748.0
74 366.0 665.0
75 85.0 553.0
76 349.0 441.0
77 660.0 662.0
78 808.0 406.0
79 83.0 695.0
80 196.0 406.0
81 440.0 200.0
82 767.0 248.0
83 171.0 420.0
84 228.0 570.0
85 220.0 137.0
86 649.0 100.0
87 87.0 472.0
88 251.0 527.0
89 632.0 170.0
90 314.0 578.0
91 77.0 553.0
92 238.0 394.0
93 740.0 569.0
94 512.0 96.0
95 165.0 654.0
96 26.0 769.0
97 371.0 159.0
98 587.0 385.0
99 287.0 792.0
100 697.0 808.0
101 196.0 44.0
102 670.0 142.0
103 631.0 194.0
104 538.0 267.0
105 562.0 457.0
106 416.0 292.0
107 451.0 539.0
108 430.0 670.0
109 609.0 315.0
110 640.0 32.0
111 139.0 487.0
112 620.0 448.0
113 644.0 142.0
114 624.0 606.0
115 576.0 261.0
116 443.0 662.0
117 612.0 711.0
118 671.0 492.0
119 451.0 373.0
120 56.0 803.0
121 367.0 474.0
122 698.0 336.0
123 587.0 579.0
124 205.0 177.0
125 525.0 462.0
126 173.0 321.0
127 783.0 290.0
128 229.0 436.0
129 91.0 487.0
130 689.0 279.0
131 595.0 375.0
132 347.0 567.0
133 482.0 292.0
134 542.0 727.0
135 737.0 614.0
136 714.0 205.0
137 627.0 219.0
138 411.0 477.0
139 38.0 776.0
140 459.0 584.0
141 211.0 509.0
142 201.0 742.0
143 765.0 346.0
144 806.0 633.0
145 708.0 528.0
146 325.0 628.0
147 221.0 315.0
148 790.0 550.0
149 666.0 266.0
150 310.0 635.0
151 722.0 689.0
152 74.0 691.0
153 359.0 247.0
154 796.0 417.0
155 561.0 595.0
156 134.0 230.0
157 596.0 300.0
158 759.0 772.0
159 692.0 609.0
160 579.0 534.0
161 174.0 300.0
162 85.0 224.0
163 798.0 307.0
164 667.0 614.0
165 700.0 425.0
166 650.0 307.0
167 559.0 599.0
168 23.0 555.0
169 525.0 242.0
170 20.0 798.0
171 77.0 518.0
172 391.0 339.0
173 244.0 278.0
174 159.0 258.0
175 582.0 313.0
176 134.0 194.0
177 596.0 554.0
178 549.0 584.0
179 119.0 535.0
180 260.0 359.0
181 168.0 669.0
182 717.0 128.0
183 419.0 452.0
184 807.0 732.0
185 641.0 783.0
186 451.0 424.0
187 714.0 100.0
188 64.0 757.0
189 255.0 751.0
190 89.0 650.0
191 497.0 230.0
192 439.0 268.0
193 719.0 22.0
194 193.0 440.0
195 11.0 591.0
196 744.0 690.0
197 806.0 159.0
198 721.0 355.0
199 582.0 168.0
200 672.0 359.0
201 513.0 324.0
202 777.0 623.0
203 522.0 96.0
204 246.0 589.0
205 794.0 123.0
206 492.0 705.0
207 579.0 214.0
208 627.0 318.0
209 192.0 127.0
210 795.0 652.0
211 532.0 586.0
212 561.0 146.0
213 144.0 403.0
214 772.0 178.0
215 418.0 2.0
216 573.0 816.0
217 593.0 660.0
218 226.0 311.0
219 299.0 584.0
220 570.0 102.0
221 510.0 185.0
222 571.0 266.0
223 504.0 308.0
224 802.0 386.0
225 255.0 673.0
226 417.0 757.0
227 701.0 184.0
228 536.0 615.0
229 675.0 166.0
230 427.0 363.0
231 459.0 780.0
232 693.0 638.0
233 798.0 568.0
234 756.0 378.0
235 163.0 230.0
236 274.0 766.0
237 562.0 101.0
238 357.0 84.0
239 186.0 3.0
240 658.0 512.0
241 806.0 341.0
242 655.0 241.0
243 487.0 134.0
244 682.0 74.0
245 517.0 236.0
246 67.0 109.0
247 3.0 129.0
248 795.0 246.0
249 104.0 452.0
250 222.0 352.0
251 104.0 114.0
252 590.0 638.0
253 373.0 40.0
254 456.0 717.0
255 327.0 429.0
256 193.0 489.0
257 286.0 701.0
258 619.0 355.0
259 90.0 404.0
260 317.0 369.0
261 283.0 308.0
262 783.0 497.0
263 65.0 258.0
264 84.0 407.0
265 793.0 357.0
266 41.0 641.0
267 739.0 161.0
268 256.0 64.0
269 747.0 277.0
270 451.0 231.0
271 722.0 628.0
272 700.0 451.0
273 277.0 203.0
274 270.0 305.0
275 615.0 279.0
276 387.0 11.0
277 443.0 664.0
278 783.0 208.0
279 562.0 265.0
280 664.0 6.0
281 454.0 278.0
282 806.0 228.0
283 630.0 663.0
284 280.0 624.0
285 454.0 429.0
286 263.0 530.0
287 755.0 368.0
288 624.0 679.0
289 335.0 481.0
290 632.0 450.0
291 178.0 578.0
292 370.0 512.0
293 26.0 677.0
294 728.0 499.0
295 705.0 362.0
296 651.0 806.0
297 16.0 467.0
298 323.0 176.0
299 165.0 213.0
300 814.0 350.0
301 99.0 34.0
302 639.0 39.0
303 163.0 426.0
304 19.0 126.0
305 181.0 217.0
306 594.0 356.0
307 406.0 74.0
308 269.0 356.0
309 380.0 411.0
310 120.0 348.0
311 539.0 808.0
312 760.0 617.0
313 573.0 137.0
314 172.0 622.0
315 107.0 35.0
316 232.0 379.0
317 604.0 182.0
318 369.0 362.0
319 306.0 505.0
320 406.0 476.0
321 367.0 302.0
322 255.0 173.0
323 488.0 428.0
324 237.0 665.0
325 363.0 254.0
326 768.0 228.0
327 599.0 383.0
328 370.0 632.0
329 363.0 192.0
330 605.0 554.0
331 26.0 54.0
332 585.0 6.0
333 581.0 216.0
334 128.0 783.0
335 722.0 182.0
336 690.0 215.0
337 169.0 774.0
338 474.0 453.0
339 582.0 525.0
340 294.0 332.0
341 117.0 776.0
342 373.0 361.0
343 39.0 642.0
344 49.0 280.0
345 466.0 702.0
346 13.0 47.0
347 470.0 119.0
348 790.0 731.0
349 547.0 88.0
350 6.0 574.0
351 30.0 317.0
352 802.0 204.0
353 699.0 756.0
354 112.0 314.0
355 771.0 707.0
356 707.0 482.0
357 774.0 743.0
358 399.0 220.0
359 688.0 305.0
360 537.0 298.0
361 239.0 388.0
362 734.0 164.0
363 749.0 553.0
364 376.0 621.0
365 376.0 806.0
366 124.0 437.0
367 782.0 254.0
368 629.0 250.0
369 304.0 690.0
370 744.0 664.0
371 286.0 7.0
372 99.0 429.0
373 194.0 71.0
374 644.0 432.0
375 783.0 673.0
376 568.0 176.0
377 303.0 712.0
378 40.0 452.0
379 657.0 23.0
380 72.0 68.0
381 585.0 478.0
382 586.0 304.0
383 295.0 396.0
384 480.0 392.0
385 706.0 380.0
386 145.0 283.0
387 22.0 592.0
388 694.0 663.0
389 750.0 359.0
390 43.0 57.0
391 135.0 723.0
392 255.0 493.0
393 340.0 455.0
394 259.0 214.0
395 529.0 189.0
396 644.0 132.0
397 560.0 645.0
398 472.0 50.0
399 45.0 342.0
400 81.0 194.0
401 430.0 731.0
402 66.0 39.0
403 70.0 783.0
404 778.0 348.0
405 597.0 340.0
406 385.0 301.0
407 706.0 655.0
408 742.0 344.0
409 234.0 522.0
410 677.0 190.0
411 627.0 635.0
412 546.0 731.0
413 296.0 513.0
414 399.0 761.0
415 696.0 376.0
416 71.0 399.0
417 407.0 329.0
418 675.0 788.0
419 590.0 430.0
420 150.0 182.0
421 587.0 163.0
422 364.0 140.0
423 60.0 621.0
424 624.0 744.0
425 123.0 181.0
426 721.0 313.0
427 463.0 650.0
428 201.0 736.0
429 434.0 519.0
430 754.0 240.0
431 742.0 201.0
432 5.0 95.0
433 659.0 232.0
434 185.0 474.0
435 80.0 303.0
436 450.0 141.0
437 321.0 569.0
438 353.0 263.0
439 203.0 800.0
440 160.0 633.0
441 584.0 781.0
442 345.0 270.0
443 519.0 549.0
444 600.0 120.0
445 795.0 648.0
446 522.0 279.0
447 137.0 385.0
448 102.0 609.0
449 250.0 720.0
450 279.0 330.0
451 529.0 317.0
452 318.0 294.0
453 338.0 481.0
454 483.0 11.0
455 695.0 664.0
456 165.0 722.0
457 712.0 438.0
458 571.0 277.0
459 509.0 73.0
460 729.0 61.0
461 441.0 72.0
462 169.0 396.0
463 787.0 597.0
464 225.0 695.0
465 69.0 641.0
466 588.0 624.0
467 109.0 193.0
468 167.0 245.0
469 483.0 564.0
470 351.0 289.0
471 604.0 10.0
472 35.0 287.0
473 644.0 485.0
474 606.0 307.0
475 401.0 593.0
476 687.0 238.0
477 675.0 452.0
478 454.0 404.0
479 52.0 118.0
480 144.0 322.0
481 700.0 659.0
482 205.0 221.0
483 288.0 308.0
484 502.0 344.0
485 714.0 555.0
486 206.0 288.0
487 812.0 396.0
488 260.0 40.0
489 524.0 199.0
490 48.0 236.0
491 484.0 497.0
492 754.0 602.0
493 416.0 578.0
494 230.0 541.0
495 547.0 733.0
496 628.0 543.0
497 213.0 772.0
498 808.0 17.0
499 64.0 376.0
500 272.0 703.0
501 116.0 488.0
502 795.0 727.0
503 356.0 655.0
504 679.0 188.0
505 505.0 358.0
506 112.0 550.0
507 39.0 441.0
508 172.0 792.0
509 666.0 115.0
510 127.0 519.0
511 15.0 339.0
512 762.0 538.0
513 753.0 682.0
514 384.0 716.0
515 86.0 147.0
516 443.0 510.0
517 817.0 241.0
518 337.0 648.0
519 39.0 385.0
520 729.0 456.0
521 260.0 755.0
522 108.0 143.0
523 325.0 570.0
524 98.0 216.0
525 110.0 580.0
526 195.0 456.0
527 383.0 97.0
528 155.0 43.0
529 6.0 28.0
530 410.0 72.0
531 684.0 753.0
532 684.0 104.0
533 700.0 357.0
534 556.0 787.0
535 550.0 780.0
536 492.0 79.0
537 140.0 473.0
538 359.0 788.0
539 710.0 412.0
540 262.0 635.0
541 559.0 617.0
542 684.0 103.0
543 159.0 796.0
544 186.0 390.0
545 6.0 466.0
546 518.0 555.0
547 430.0 760.0
548 685.0 590.0
549 599.0 809.0
550 469.0 530.0
551 390.0 56.0
552 65.0 422.0
553 522.0 404.0
554 566.0 115.0
555 18.0 815.0
556 762.0 60.0
557 412.0 323.0
558 247.0 697.0
559 46.0 797.0
560 317.0 317.0
561 355.0 274.0
562 479.0 556.0
563 279.0 687.0
564 257.0 819.0
565 590.0 291.0
566 300.0 227.0
567 620.0 114.0
568 799.0 641.0
569 662.0 696.0
570 216.0 162.0
571 755.0 222.0
572 665.0 772.0
573 703.0 155.0
574 496.0 147.0
575 9.0 624.0
576 743.0 200.0
577 244.0 132.0
578 418.0 778.0
579 207.0 728.0
580 543.0 525.0
581 543.0 690.0
582 563.0 557.0
583 259.0 278.0
584 258.0 649.0
585 17.0 182.0
586 461.0 654.0
587 400.0 202.0
588 235.0 779.0
589 702.0 773.0
590 46.0 470.0
591 551.0 526.0
592 631.0 398.0
593 596.0 190.0
594 504.0 147.0
595 800.0 796.0
596 433.0 729.0
597 609.0 243.0
598 197.0 203.0
599 751.0 609.0
600 664.0 163.0
601 321.0 382.0
602 561.0 169.0
603 220.0 162.0
604 162.0 167.0
605 393.0 780.0
606 397.0 269.0
607 404.0 250.0
608 241.0 719.0
609 572.0 652.0
610 319.0 647.0
611 52.0 640.0
612 552.0 100.0
613 732.0 339.0
614 434.0 397.0
615 11.0 450.0
616 86.0 210.0
617 111.0 383.0
618 725.0 764.0
619 597.0 343.0
620 204.0 391.0
621 610.0 531.0
622 729.0 657.0
623 637.0 594.0
624 735.0 417.0
625 558.0 257.0
626 87.0 36.0
627 568.0 811.0
628 557.0 434.0
629 620.0 484.0
630 47.0 456.0
631 420.0 81.0
632 213.0 519.0
633 85.0 644.0
634 637.0 787.0
635 538.0 401.0
636 196.0 692.0
637 157.0 501.0
638 470.0 352.0
639 727.0 262.0
640 657.0 756.0
641 84.0 111.0
642 416.0 794.0
643 405.0 226.0
644 309.0 238.0
645 782.0 702.0
646 681.0 395.0
647 299.0 543.0
648 635.0 89.0
649 35.0 20.0
650 511.0 54.0
651 91.0 10.0
652 14.0 621.0
653 770.0 1.0
654 21.0 689.0
655 7.0 210.0
656 536.0 83.0
657 3.0 342.0
658 723.0 307.0
659 679.0 524.0
660 5.0 684.0
661 696.0 712.0
662 806.0 562.0
663 88.0 395.0
664 458.0 544.0
665 350.0 642.0
666 743.0 743.0
667 156.0 39.0
668 233.0 687.0
669 179.0 462.0
670 717.0 794.0
671 769.0 584.0
672 516.0 312.0
673 562.0 694.0
674 215.0 471.0
675 204.0 367.0
676 498.0 384.0
677 671.0 635.0
678 542.0 310.0
679 668.0 426.0
680 257.0 476.0
681 437.0 107.0
682 8.0 438.0
683 98.0 6.0
684 172.0 426.0
685 313.0 94.0
686 472.0 6.0
687 773.0 772.0
688 182.0 689.0
689 739.0 539.0
690 353.0 67.0
691 258.0 371.0
692 316.0 523.0
693 435.0 189.0
694 671.0 193.0
695 646.0 378.0
696 728.0 219.0
697 246.0 436.0
698 12.0 433.0
699 775.0 354.0
700 484.0 123.0
701 334.0 595.0
702 499.0 146.0
703 775.0 595.0
704 152.0 118.0
705 73.0 30.0
706 378.0 407.0
707 762.0 609.0
708 155.0 477.0
709 811.0 562.0
710 340.0 6.0
711 583.0 738.0
712 524.0 682.0
713 353.0 769.0
714 727.0 83.0
715 280.0 794.0
716 189.0 568.0
717 675.0 176.0
718 621.0 615.0
719 258.0 742.0
720 399.0 405.0
721 820.0 435.0
722 449.0 258.0
723 368.0 749.0
724 347.0 626.0
725 738.0 599.0
726 453.0 49.0
727 388.0 451.0
728 679.0 3.0
729 688.0 675.0
730 154.0 532.0
731 204.0 283.0
732 250.0 798.0
733 30.0 566.0
734 315.0 630.0
735 553.0 702.0
736 681.0 281.0
737 580.0 78.0
738 78.0 379.0
739 388.0 314.0
740 84.0 94.0
741 537.0 669.0
742 48.0 47.0
743 583.0 792.0
744 664.0 52.0
745 448.0 34.0
746 744.0 534.0
747 459.0 31.0
748 673.0 810.0
749 710.0 296.0
750 57.0 31.0
751 620.0 674.0
752 222.0 242.0
753 752.0 217.0
754 27.0 620.0
755 102.0 482.0
756 277.0 336.0
757 172.0 559.0
758 451.0 807.0
759 678.0 682.0
760 382.0 89.0
761 270.0 325.0
762 64.0 314.0
763 498.0 34.0
764 346.0 652.0
765 530.0 656.0
766 205.0 475.0
767 59.0 159.0
768 741.0 255.0
769 682.0 194.0
770 366.0 33.0
771 614.0 495.0
772 168.0 44.0
773 234.0 696.0
774 685.0 695.0
775 690.0 53.0
776 138.0 52.0
777 397.0 284.0
778 704.0 541.0
779 669.0 647.0
780 460.0 645.0
781 300.0 702.0
782 229.0 743.0
783 606.0 298.0
784 361.0 143.0
785 671.0 9.0
786 5.0 297.0
787 182.0 772.0
788 253.0 465.0
789 790.0 793.0
790 253.0 304.0
791 231.0 26.0
792 818.0 351.0
793 78.0 209.0
794 337.0 302.0
795 456.0 574.0
796 171.0 211.0
797 751.0 272.0
798 212.0 98.0
799 148.0 34.0
800 370.0 46.0
801 89.0 804.0
802 18.0 597.0
803 631.0 613.0
804 811.0 794.0
805 187.0 258.0
806 372.0 257.0
807 387.0 169.0
808 155.0 200.0
809 334.0 755.0
810 403.0 50.0
811 808.0 725.0
812 691.0 700.0
813 599.0 612.0
814 355.0 622.0
815 200.0 622.0
816 753.0 413.0
817 105.0 534.0
818 111.0 151.0
819 538.0 695.0
820 534.0 809.0
EOF





